(set-option :print-success false)
(set-logic QF_UF)
(declare-sort x35 0)
(declare-sort x81 0)
(declare-fun x66 () x81)
(declare-fun x47 (x81 x81) x81)
(declare-fun x156 () x81)
(declare-fun x12 () x81)
(declare-fun x16 () x81)
(declare-fun x103 () x81)
(declare-fun x136 (x81 x81) x81)
(assert (or (= (x47 x66 x66) x66) (or (= (x47 x12 x12) x12) (or (= (x47 x103 x103) x103) (or (= x156 (x47 x156 x156)) (= (x47 x16 x16) x16))))))
(assert (let ((x131 (x47 x12 x12)) (x118 (x47 x16 x16)) (x11 (x47 x103 x103)) (x27 (x47 x66 x66)) (x84 (x47 x156 x156))) (and (and (= (x47 x131 x131) x131) (and (= x11 (x47 x11 x11)) (and (= (x47 x118 x118) x118) (= x84 (x47 x84 x84))))) (= x27 (x47 x27 x27)))))
(assert (let ((x82 (x47 x103 x156)) (x24 (x47 x12 x103)) (x4 (x47 x156 x103)) (x78 (x47 x12 x156)) (x98 (x47 x12 x66)) (x27 (x47 x16 x66)) (x88 (x47 x156 x66)) (x26 (x47 x103 x103)) (x106 (x47 x66 x16)) (x20 (x47 x103 x16)) (x131 (x47 x16 x12)) (x86 (x47 x103 x12)) (x124 (x47 x12 x12)) (x153 (x47 x66 x156)) (x68 (x47 x12 x16)) (x64 (x47 x66 x12)) (x22 (x47 x103 x66)) (x118 (x47 x16 x16)) (x43 (x47 x156 x16)) (x67 (x47 x156 x12)) (x100 (x47 x66 x103)) (x11 (x47 x16 x103)) (x105 (x47 x156 x156)) (x84 (x47 x16 x156)) (x110 (x47 x66 x66))) (and (and (and (and (and (and (and (and (or (or (or (= x118 x103) (or (= x118 x156) (= x118 x16))) (= x12 x118)) (= x118 x66)) (or (= x84 x66) (or (= x12 x84) (or (= x84 x103) (or (= x84 x16) (= x156 x84)))))) (or (or (or (= x11 x103) (or (= x11 x156) (= x16 x11))) (= x12 x11)) (= x66 x11))) (or (or (or (= x103 x131) (or (= x131 x16) (= x131 x156))) (= x131 x12)) (= x131 x66))) (or (= x27 x66) (or (or (= x103 x27) (or (= x156 x27) (= x16 x27))) (= x27 x12)))) (and (or (= x88 x66) (or (= x12 x88) (or (or (= x88 x156) (= x88 x16)) (= x103 x88)))) (and (and (or (or (= x12 x4) (or (= x103 x4) (or (= x4 x156) (= x16 x4)))) (= x66 x4)) (and (or (= x66 x105) (or (= x12 x105) (or (= x103 x105) (or (= x105 x16) (= x105 x156))))) (or (= x43 x66) (or (= x43 x12) (or (= x43 x103) (or (= x43 x16) (= x156 x43))))))) (or (or (= x12 x67) (or (= x103 x67) (or (= x156 x67) (= x16 x67)))) (= x67 x66))))) (and (or (or (or (= x103 x22) (or (= x16 x22) (= x22 x156))) (= x22 x12)) (= x66 x22)) (and (or (= x86 x66) (or (= x12 x86) (or (= x86 x103) (or (= x156 x86) (= x16 x86))))) (and (or (or (= x12 x26) (or (or (= x26 x156) (= x16 x26)) (= x26 x103))) (= x26 x66)) (and (or (or (or (or (= x82 x156) (= x82 x16)) (= x103 x82)) (= x82 x12)) (= x66 x82)) (or (= x66 x20) (or (or (= x20 x103) (or (= x156 x20) (= x20 x16))) (= x12 x20)))))))) (and (and (and (and (or (or (= x12 x78) (or (= x103 x78) (or (= x78 x16) (= x156 x78)))) (= x78 x66)) (or (or (= x12 x68) (or (= x68 x103) (or (= x68 x16) (= x68 x156)))) (= x66 x68))) (or (= x24 x66) (or (= x24 x12) (or (or (= x24 x156) (= x16 x24)) (= x103 x24))))) (or (= x124 x66) (or (or (or (= x124 x156) (= x124 x16)) (= x103 x124)) (= x124 x12)))) (or (= x98 x66) (or (or (= x103 x98) (or (= x98 x16) (= x156 x98))) (= x12 x98))))) (and (and (and (or (or (or (= x103 x100) (or (= x156 x100) (= x16 x100))) (= x12 x100)) (= x66 x100)) (and (or (or (= x12 x106) (or (= x106 x103) (or (= x106 x16) (= x106 x156)))) (= x66 x106)) (or (or (= x12 x153) (or (or (= x153 x16) (= x156 x153)) (= x103 x153))) (= x66 x153)))) (or (= x64 x66) (or (= x12 x64) (or (= x64 x103) (or (= x156 x64) (= x16 x64)))))) (or (= x110 x66) (or (or (or (= x156 x110) (= x110 x16)) (= x110 x103)) (= x12 x110)))))))
(assert (or (and (not (= x66 (x47 (x47 x66 x66) x66))) (and (and (and (not (= (x47 (x47 x66 x16) x66) x16)) (not (= x156 (x47 (x47 x66 x156) x66)))) (not (= x103 (x47 (x47 x66 x103) x66)))) (not (= x12 (x47 (x47 x66 x12) x66))))) (or (and (and (not (= (x47 (x47 x12 x12) x12) x12)) (and (and (not (= (x47 (x47 x12 x16) x12) x16)) (not (= x156 (x47 (x47 x12 x156) x12)))) (not (= x103 (x47 (x47 x12 x103) x12))))) (not (= (x47 (x47 x12 x66) x12) x66))) (or (or (and (and (not (= x12 (x47 (x47 x156 x12) x156))) (and (not (= (x47 (x47 x156 x103) x156) x103)) (and (not (= x156 (x47 (x47 x156 x156) x156))) (not (= (x47 (x47 x156 x16) x156) x16))))) (not (= x66 (x47 (x47 x156 x66) x156)))) (and (not (= x66 (x47 (x47 x16 x66) x16))) (and (and (and (not (= (x47 (x47 x16 x16) x16) x16)) (not (= x156 (x47 (x47 x16 x156) x16)))) (not (= x103 (x47 (x47 x16 x103) x16)))) (not (= (x47 (x47 x16 x12) x16) x12))))) (and (not (= x66 (x47 (x47 x103 x66) x103))) (and (not (= x12 (x47 (x47 x103 x12) x103))) (and (not (= (x47 (x47 x103 x103) x103) x103)) (and (not (= (x47 (x47 x103 x16) x103) x16)) (not (= x156 (x47 (x47 x103 x156) x103)))))))))))
(assert (let ((x98 (x47 x66 x12)) (x67 (x47 x12 x156)) (x105 (x47 x156 x156)) (x22 (x47 x66 x103)) (x24 (x47 x103 x12)) (x27 (x47 x66 x16)) (x82 (x47 x156 x103)) (x68 (x47 x16 x12)) (x84 (x47 x156 x16)) (x131 (x47 x12 x16)) (x88 (x47 x66 x156)) (x11 (x47 x103 x16)) (x43 (x47 x16 x156)) (x86 (x47 x12 x103)) (x26 (x47 x103 x103)) (x110 (x47 x66 x66)) (x153 (x47 x156 x66)) (x124 (x47 x12 x12)) (x64 (x47 x12 x66)) (x20 (x47 x16 x103)) (x100 (x47 x103 x66)) (x78 (x47 x156 x12)) (x106 (x47 x16 x66)) (x118 (x47 x16 x16)) (x4 (x47 x103 x156))) (and (and (and (and (not (= x100 x110)) (and (and (and (not (= x153 x64)) (and (and (not (= x106 x110)) (and (and (not (= x153 x106)) (not (= x106 x100))) (not (= x64 x106)))) (not (= x153 x100)))) (not (= x110 x153))) (not (= x64 x100)))) (not (= x110 x64))) (and (and (and (not (= x22 x86)) (and (not (= x22 x26)) (and (not (= x26 x86)) (and (not (= x22 x82)) (and (not (= x82 x86)) (and (not (= x26 x82)) (and (and (not (= x20 x86)) (and (not (= x26 x20)) (not (= x20 x82)))) (not (= x20 x22))))))))) (and (and (not (= x27 x131)) (and (not (= x11 x27)) (and (not (= x131 x11)) (and (not (= x84 x27)) (and (and (and (not (= x118 x27)) (and (and (not (= x11 x118)) (not (= x118 x84))) (not (= x131 x118)))) (not (= x11 x84))) (not (= x84 x131))))))) (and (not (= x88 x67)) (and (not (= x88 x4)) (and (and (and (and (and (not (= x88 x43)) (and (not (= x43 x67)) (and (not (= x43 x105)) (not (= x43 x4))))) (not (= x4 x105))) (not (= x67 x105))) (not (= x88 x105))) (not (= x4 x67))))))) (and (not (= x124 x98)) (and (and (and (and (not (= x78 x124)) (and (not (= x78 x24)) (and (not (= x98 x68)) (and (not (= x68 x124)) (and (not (= x68 x78)) (not (= x24 x68))))))) (not (= x78 x98))) (not (= x124 x24))) (not (= x24 x98)))))) (and (and (not (= x98 x110)) (and (not (= x22 x110)) (and (not (= x22 x98)) (and (not (= x88 x110)) (and (not (= x88 x98)) (and (and (not (= x27 x110)) (and (not (= x27 x98)) (and (not (= x27 x22)) (not (= x88 x27))))) (not (= x88 x22)))))))) (and (and (and (and (and (not (= x24 x26)) (and (not (= x4 x100)) (and (not (= x4 x24)) (and (not (= x26 x4)) (and (and (and (not (= x11 x4)) (not (= x26 x11))) (not (= x11 x24))) (not (= x11 x100))))))) (not (= x26 x100))) (not (= x100 x24))) (and (and (not (= x78 x153)) (and (not (= x82 x153)) (and (and (not (= x153 x105)) (and (and (and (and (not (= x78 x84)) (and (not (= x84 x105)) (not (= x84 x82)))) (not (= x84 x153))) (not (= x82 x105))) (not (= x78 x105)))) (not (= x78 x82))))) (and (and (not (= x106 x20)) (and (not (= x68 x20)) (and (not (= x106 x43)) (and (and (and (and (not (= x118 x68)) (and (not (= x20 x118)) (not (= x118 x43)))) (not (= x106 x118))) (not (= x43 x20))) (not (= x43 x68)))))) (not (= x106 x68))))) (and (not (= x124 x64)) (and (not (= x64 x86)) (and (and (and (not (= x67 x124)) (and (and (not (= x64 x131)) (and (and (not (= x131 x67)) (not (= x86 x131))) (not (= x124 x131)))) (not (= x86 x67)))) (not (= x64 x67))) (not (= x124 x86))))))))))
(assert (let ((x54 (x47 x16 x16)) (x153 (x47 x103 x66)) (x24 (x47 x16 x66)) (x25 (x47 x12 x16)) (x22 (x47 x103 x12)) (x105 (x47 x103 x156)) (x106 (x47 x66 x103)) (x4 (x47 x156 x103)) (x124 (x47 x66 x156)) (x145 (x47 x103 x16)) (x100 (x47 x66 x12)) (x82 (x47 x12 x156)) (x43 (x47 x16 x103)) (x11 (x47 x16 x156)) (x68 (x47 x12 x12)) (x98 (x47 x156 x66)) (x86 (x47 x12 x103)) (x20 (x47 x16 x12)) (x26 (x47 x156 x12)) (x36 (x47 x156 x16)) (x67 (x47 x103 x103)) (x110 (x47 x66 x66)) (x109 (x47 x66 x16)) (x131 (x47 x156 x156)) (x64 (x47 x12 x66))) (let ((x79 (= x105 x156)) (x27 (= x16 x145)) (x154 (= x12 x26)) (x84 (= x16 x36)) (x61 (= x66 x153)) (x40 (= x156 x124)) (x93 (= x20 x12)) (x117 (= x64 x66)) (x76 (= x156 x131)) (x101 (= x156 x11)) (x88 (= x25 x16)) (x159 (= x66 x110)) (x125 (= x103 x106)) (x90 (= x22 x12)) (x94 (= x66 x98)) (x59 (= x100 x12)) (x99 (= x4 x103)) (x34 (= x12 x68)) (x21 (= x82 x156)) (x118 (= x54 x16)) (x144 (= x24 x66)) (x17 (= x103 x43)) (x127 (= x103 x86)) (x78 (= x109 x16)) (x37 (= x103 x67))) (and (and (and (and (or (or (or (or (or (and x94 (= x16 x124)) (and x144 x78)) (and (= x106 x16) x61)) (and x117 (= x16 x100))) (and (= x110 x16) x159)) (or (or (and (= x16 x64) x59) (or (and (= x16 x68) x34) (or (or (and (= x82 x16) x154) (and x88 x93)) (and x90 (= x16 x86))))) (or (or (or (and x127 (= x22 x16)) (or (and (= x67 x16) x37) (or (and (= x105 x16) x99) (and x27 x17)))) (and (= x16 x153) x125)) (or (or (and x78 (= x24 x16)) (or (or (and (= x16 x43) x27) (or (and x118 x118) (and (= x16 x11) x84))) (and (= x16 x20) x88))) (or (or (or (and (= x16 x4) x79) (or (and x101 x84) (and (= x16 x131) x76))) (and (= x26 x16) x21)) (and x40 (= x16 x98))))))) (or (or (or (and x59 (= x64 x156)) (or (or (and x90 (= x86 x156)) (or (and x21 x154) (and (= x156 x25) x93))) (and (= x68 x156) x34))) (or (or (or (or (and x88 (= x20 x156)) (or (and x27 (= x43 x156)) (or (and x101 x84) (and x118 (= x156 x54))))) (and (= x24 x156) x78)) (or (or (or (and x79 (= x4 x156)) (or (and x76 x76) (and (= x36 x156) x101))) (and (= x26 x156) x21)) (and x40 (= x98 x156)))) (or (or (or (and x37 (= x67 x156)) (or (and (= x156 x145) x17) (and x79 x99))) (and (= x156 x22) x127)) (and (= x156 x153) x125)))) (or (and x159 (= x156 x110)) (or (and (= x156 x100) x117) (or (or (and (= x156 x109) x144) (and x94 x40)) (and x61 (= x156 x106))))))) (or (or (and x159 (= x103 x110)) (or (or (or (and (= x124 x103) x94) (and (= x103 x109) x144)) (and x125 x61)) (and (= x103 x100) x117))) (or (or (or (or (or (and x88 (= x20 x103)) (or (and x27 x17) (or (and x84 (= x11 x103)) (and (= x54 x103) x118)))) (and (= x103 x24) x78)) (or (and (= x103 x98) x40) (or (and (= x26 x103) x21) (or (or (and (= x131 x103) x76) (and x101 (= x36 x103))) (and x79 x99))))) (or (and (= x153 x103) x125) (or (and x127 (= x103 x22)) (or (and x37 x37) (or (and x99 (= x105 x103)) (and (= x103 x145) x17)))))) (or (or (or (or (and (= x82 x103) x154) (and (= x25 x103) x93)) (and x127 x90)) (and (= x103 x68) x34)) (and x59 (= x64 x103)))))) (or (or (and x159 (= x12 x110)) (or (or (or (and (= x12 x124) x94) (and (= x109 x12) x144)) (and x61 (= x106 x12))) (and x59 x117))) (or (or (or (and (= x12 x153) x125) (or (or (or (and x99 (= x105 x12)) (and (= x12 x145) x17)) (and (= x12 x67) x37)) (and x90 x127))) (or (or (and x78 (= x24 x12)) (or (or (and (= x43 x12) x27) (or (and (= x12 x11) x84) (and (= x12 x54) x118))) (and x88 x93))) (or (and (= x98 x12) x40) (or (or (and (= x4 x12) x79) (or (and (= x12 x36) x101) (and x76 (= x12 x131)))) (and x21 x154))))) (or (or (and x34 x34) (or (and x90 (= x86 x12)) (or (and (= x82 x12) x154) (and (= x25 x12) x93)))) (and x59 (= x12 x64)))))) (or (or (or (and x117 x59) (or (and x34 (= x66 x68)) (or (and (= x66 x86) x90) (or (and x154 (= x66 x82)) (and x93 (= x25 x66)))))) (or (or (or (and x40 x94) (or (or (and (= x66 x4) x79) (or (and (= x66 x36) x101) (and x76 (= x66 x131)))) (and x21 (= x26 x66)))) (or (and x144 x78) (or (or (and x27 (= x66 x43)) (or (and (= x11 x66) x84) (and x118 (= x54 x66)))) (and (= x20 x66) x88)))) (or (and x61 x125) (or (or (or (and x17 (= x66 x145)) (and x99 (= x66 x105))) (and (= x67 x66) x37)) (and (= x22 x66) x127))))) (or (or (and x117 (= x66 x100)) (or (and x61 (= x66 x106)) (or (and (= x66 x124) x94) (and x144 (= x66 x109))))) (and x159 x159)))))))
(assert (let ((x11 (x47 x156 x156)) (x43 (x47 x66 x66)) (x84 (x47 x16 x16)) (x131 (x47 x103 x103)) (x27 (x47 x12 x12))) (let ((x4 (= x11 x156)) (x26 (= x103 x131)) (x22 (= x43 x66)) (x118 (= x16 x84)) (x86 (= x12 x27))) (let ((x88 (and (not (= x43 x103)) (and (and (and (not (= x103 x84)) (not (= x103 x11))) (not x26)) (not (= x103 x27))))) (x105 (and (and (and (and (not (= x16 x11)) (not x118)) (not (= x16 x131))) (not (= x16 x27))) (not (= x43 x16)))) (x82 (and (and (not (= x27 x66)) (and (and (not (= x66 x11)) (not (= x84 x66))) (not (= x131 x66)))) (not x22))) (x20 (and (and (and (not (= x131 x12)) (and (not (= x12 x84)) (not (= x12 x11)))) (not x86)) (not (= x43 x12)))) (x67 (and (not (= x43 x156)) (and (and (not (= x156 x131)) (and (not x4) (not (= x84 x156)))) (not (= x156 x27)))))) (or (or (or (or (or (and (= (x47 x103 x12) x103) x20) (or (or (and x105 (= x103 (x47 x103 x16))) (and (= (x47 x103 x156) x103) x67)) (and x26 x88))) (and (= (x47 x103 x66) x103) x82)) (or (or (or (or (or (and x67 (= x16 (x47 x16 x156))) (and x118 x105)) (and (= x16 (x47 x16 x103)) x88)) (and (= (x47 x16 x12) x16) x20)) (and x82 (= x16 (x47 x16 x66)))) (or (or (and (= x156 (x47 x156 x12)) x20) (or (or (and x105 (= (x47 x156 x16) x156)) (and x67 x4)) (and x88 (= x156 (x47 x156 x103))))) (and x82 (= (x47 x156 x66) x156))))) (or (or (or (or (and x105 (= (x47 x12 x16) x12)) (and (= x12 (x47 x12 x156)) x67)) (and (= x12 (x47 x12 x103)) x88)) (and x20 x86)) (and x82 (= x12 (x47 x12 x66))))) (or (or (and x20 (= x66 (x47 x66 x12))) (or (and (= (x47 x66 x103) x66) x88) (or (and x67 (= x66 (x47 x66 x156))) (and (= (x47 x66 x16) x66) x105)))) (and x82 x22)))))))
(assert (or (and (= x66 (x47 (x47 x66 x66) x66)) (and (and (and (= (x47 (x47 x156 x66) x66) x156) (= x16 (x47 (x47 x16 x66) x66))) (= x103 (x47 (x47 x103 x66) x66))) (= x12 (x47 (x47 x12 x66) x66)))) (or (and (= (x47 (x47 x66 x12) x12) x66) (and (= (x47 (x47 x12 x12) x12) x12) (and (= x103 (x47 (x47 x103 x12) x12)) (and (= x16 (x47 (x47 x16 x12) x12)) (= (x47 (x47 x156 x12) x12) x156))))) (or (and (= (x47 (x47 x66 x103) x103) x66) (and (and (and (= x16 (x47 (x47 x16 x103) x103)) (= x156 (x47 (x47 x156 x103) x103))) (= x103 (x47 (x47 x103 x103) x103))) (= x12 (x47 (x47 x12 x103) x103)))) (or (and (and (and (= x103 (x47 (x47 x103 x16) x16)) (and (= x156 (x47 (x47 x156 x16) x16)) (= (x47 (x47 x16 x16) x16) x16))) (= x12 (x47 (x47 x12 x16) x16))) (= (x47 (x47 x66 x16) x16) x66)) (and (= (x47 (x47 x66 x156) x156) x66) (and (and (= x103 (x47 (x47 x103 x156) x156)) (and (= x156 (x47 (x47 x156 x156) x156)) (= (x47 (x47 x16 x156) x156) x16))) (= (x47 (x47 x12 x156) x156) x12))))))))
(assert (or (and (and (and (not (= (x47 (x47 x103 x66) x66) x103)) (and (not (= x16 (x47 (x47 x16 x66) x66))) (not (= x156 (x47 (x47 x156 x66) x66))))) (not (= (x47 (x47 x12 x66) x66) x12))) (not (= (x47 (x47 x66 x66) x66) x66))) (or (or (or (and (not (= x66 (x47 (x47 x66 x16) x16))) (and (and (and (not (= x16 (x47 (x47 x16 x16) x16))) (not (= (x47 (x47 x156 x16) x16) x156))) (not (= (x47 (x47 x103 x16) x16) x103))) (not (= (x47 (x47 x12 x16) x16) x12)))) (and (not (= x66 (x47 (x47 x66 x156) x156))) (and (not (= x12 (x47 (x47 x12 x156) x156))) (and (and (not (= (x47 (x47 x16 x156) x156) x16)) (not (= x156 (x47 (x47 x156 x156) x156)))) (not (= x103 (x47 (x47 x103 x156) x156))))))) (and (not (= (x47 (x47 x66 x103) x103) x66)) (and (not (= x12 (x47 (x47 x12 x103) x103))) (and (not (= x103 (x47 (x47 x103 x103) x103))) (and (not (= x16 (x47 (x47 x16 x103) x103))) (not (= x156 (x47 (x47 x156 x103) x103)))))))) (and (and (not (= x12 (x47 (x47 x12 x12) x12))) (and (and (not (= x156 (x47 (x47 x156 x12) x12))) (not (= (x47 (x47 x16 x12) x12) x16))) (not (= x103 (x47 (x47 x103 x12) x12))))) (not (= (x47 (x47 x66 x12) x12) x66))))))
(assert (let ((x67 (x47 x156 x12)) (x153 (x47 x66 x156)) (x98 (x47 x12 x66)) (x124 (x47 x12 x12)) (x131 (x47 x16 x12)) (x43 (x47 x156 x16)) (x84 (x47 x16 x156)) (x27 (x47 x16 x66)) (x64 (x47 x66 x12)) (x106 (x47 x66 x16)) (x4 (x47 x156 x103)) (x68 (x47 x12 x16)) (x100 (x47 x66 x103)) (x86 (x47 x103 x12)) (x88 (x47 x156 x66)) (x78 (x47 x12 x156)) (x82 (x47 x103 x156)) (x118 (x47 x16 x16)) (x110 (x47 x66 x66)) (x22 (x47 x103 x66)) (x26 (x47 x103 x103)) (x11 (x47 x16 x103)) (x24 (x47 x12 x103)) (x105 (x47 x156 x156)) (x20 (x47 x103 x16))) (and (and (or (= x66 (x47 x98 x98)) (or (or (or (= x156 (x47 x78 x78)) (= x16 (x47 x68 x68))) (= x103 (x47 x24 x24))) (= (x47 x124 x124) x12))) (and (and (or (or (or (or (= (x47 x84 x84) x156) (= x16 (x47 x118 x118))) (= (x47 x11 x11) x103)) (= x12 (x47 x131 x131))) (= (x47 x27 x27) x66)) (or (= x66 (x47 x88 x88)) (or (or (or (= x16 (x47 x43 x43)) (= (x47 x105 x105) x156)) (= (x47 x4 x4) x103)) (= x12 (x47 x67 x67))))) (or (or (or (or (= x156 (x47 x82 x82)) (= x16 (x47 x20 x20))) (= x103 (x47 x26 x26))) (= x12 (x47 x86 x86))) (= (x47 x22 x22) x66)))) (or (or (or (or (= (x47 x106 x106) x16) (= x156 (x47 x153 x153))) (= x103 (x47 x100 x100))) (= (x47 x64 x64) x12)) (= x66 (x47 x110 x110))))))
(assert (let ((x20 (x47 x103 x16)) (x27 (x47 x16 x66)) (x67 (x47 x156 x12)) (x131 (x47 x16 x12)) (x86 (x47 x103 x12)) (x98 (x47 x12 x66)) (x105 (x47 x156 x156)) (x110 (x47 x66 x66)) (x24 (x47 x12 x103)) (x124 (x47 x12 x12)) (x43 (x47 x156 x16)) (x64 (x47 x66 x12)) (x118 (x47 x16 x16)) (x82 (x47 x103 x156)) (x100 (x47 x66 x103)) (x153 (x47 x66 x156)) (x11 (x47 x16 x103)) (x78 (x47 x12 x156)) (x22 (x47 x103 x66)) (x4 (x47 x156 x103)) (x84 (x47 x16 x156)) (x106 (x47 x66 x16)) (x26 (x47 x103 x103)) (x88 (x47 x156 x66)) (x68 (x47 x12 x16))) (and (or (or (= (x47 x110 x66) x66) (= (x47 x66 x110) x66)) (or (or (or (= (x47 x66 x100) x103) (= (x47 x100 x66) x103)) (or (or (= x16 (x47 x106 x66)) (= x16 (x47 x66 x106))) (or (= (x47 x153 x66) x156) (= x156 (x47 x66 x153))))) (or (= x12 (x47 x66 x64)) (= (x47 x64 x66) x12)))) (and (or (or (or (or (or (= (x47 x78 x12) x156) (= (x47 x12 x78) x156)) (or (= x16 (x47 x68 x12)) (= (x47 x12 x68) x16))) (or (= x103 (x47 x24 x12)) (= x103 (x47 x12 x24)))) (or (= x12 (x47 x12 x124)) (= (x47 x124 x12) x12))) (or (= x66 (x47 x98 x12)) (= (x47 x12 x98) x66))) (and (and (or (or (or (or (or (= (x47 x118 x16) x16) (= x16 (x47 x16 x118))) (or (= (x47 x84 x16) x156) (= x156 (x47 x16 x84)))) (or (= (x47 x16 x11) x103) (= x103 (x47 x11 x16)))) (or (= (x47 x16 x131) x12) (= x12 (x47 x131 x16)))) (or (= (x47 x27 x16) x66) (= x66 (x47 x16 x27)))) (or (or (= x66 (x47 x88 x156)) (= (x47 x156 x88) x66)) (or (or (= x12 (x47 x156 x67)) (= (x47 x67 x156) x12)) (or (or (or (= x156 (x47 x156 x105)) (= (x47 x105 x156) x156)) (or (= (x47 x156 x43) x16) (= x16 (x47 x43 x156)))) (or (= (x47 x156 x4) x103) (= (x47 x4 x156) x103)))))) (or (or (= x66 (x47 x103 x22)) (= x66 (x47 x22 x103))) (or (or (= x12 (x47 x86 x103)) (= (x47 x103 x86) x12)) (or (or (or (= x16 (x47 x103 x20)) (= x16 (x47 x20 x103))) (or (= (x47 x103 x82) x156) (= (x47 x82 x103) x156))) (or (= (x47 x103 x26) x103) (= (x47 x26 x103) x103))))))))))
(assert (and (= x66 (x47 x156 x103)) (and (= (x47 x156 x16) x12) (and (= x103 (x47 x12 x16)) (= (x47 x156 x156) x16)))))
(assert (or (or (and (not (= (x47 x66 (x47 x12 x66)) x12)) (and (not (= x12 (x47 x12 (x47 x12 x12)))) (and (and (not (= (x47 x16 (x47 x12 x16)) x12)) (not (= (x47 x156 (x47 x12 x156)) x12))) (not (= (x47 x103 (x47 x12 x103)) x12))))) (or (and (and (not (= x103 (x47 x12 (x47 x103 x12)))) (and (not (= x103 (x47 x103 (x47 x103 x103)))) (and (not (= x103 (x47 x16 (x47 x103 x16)))) (not (= x103 (x47 x156 (x47 x103 x156))))))) (not (= (x47 x66 (x47 x103 x66)) x103))) (or (and (not (= x156 (x47 x66 (x47 x156 x66)))) (and (and (not (= (x47 x103 (x47 x156 x103)) x156)) (and (not (= (x47 x16 (x47 x156 x16)) x156)) (not (= x156 (x47 x156 (x47 x156 x156)))))) (not (= x156 (x47 x12 (x47 x156 x12)))))) (and (not (= x16 (x47 x66 (x47 x16 x66)))) (and (and (and (not (= x16 (x47 x16 (x47 x16 x16)))) (not (= (x47 x156 (x47 x16 x156)) x16))) (not (= (x47 x103 (x47 x16 x103)) x16))) (not (= (x47 x12 (x47 x16 x12)) x16))))))) (and (not (= x66 (x47 x66 (x47 x66 x66)))) (and (and (and (not (= (x47 x16 (x47 x66 x16)) x66)) (not (= x66 (x47 x156 (x47 x66 x156))))) (not (= (x47 x103 (x47 x66 x103)) x66))) (not (= (x47 x12 (x47 x66 x12)) x66))))))
(assert (or (and (not (= (x47 x66 (x47 x66 x66)) x66)) (and (and (not (= (x47 x66 (x47 x66 x103)) x103)) (and (not (= x16 (x47 x66 (x47 x66 x16)))) (not (= x156 (x47 x66 (x47 x66 x156)))))) (not (= (x47 x66 (x47 x66 x12)) x12)))) (or (and (and (not (= x12 (x47 x12 (x47 x12 x12)))) (and (and (not (= (x47 x12 (x47 x12 x156)) x156)) (not (= (x47 x12 (x47 x12 x16)) x16))) (not (= x103 (x47 x12 (x47 x12 x103)))))) (not (= (x47 x12 (x47 x12 x66)) x66))) (or (or (and (not (= x66 (x47 x16 (x47 x16 x66)))) (and (not (= (x47 x16 (x47 x16 x12)) x12)) (and (and (not (= (x47 x16 (x47 x16 x16)) x16)) (not (= (x47 x16 (x47 x16 x156)) x156))) (not (= x103 (x47 x16 (x47 x16 x103))))))) (and (and (not (= x12 (x47 x156 (x47 x156 x12)))) (and (not (= (x47 x156 (x47 x156 x103)) x103)) (and (not (= (x47 x156 (x47 x156 x16)) x16)) (not (= x156 (x47 x156 (x47 x156 x156))))))) (not (= x66 (x47 x156 (x47 x156 x66)))))) (and (not (= (x47 x103 (x47 x103 x66)) x66)) (and (and (and (not (= x156 (x47 x103 (x47 x103 x156)))) (not (= (x47 x103 (x47 x103 x16)) x16))) (not (= x103 (x47 x103 (x47 x103 x103))))) (not (= (x47 x103 (x47 x103 x12)) x12))))))))
(assert (let ((x153 (x47 x156 x66)) (x101 (x47 x66 x156)) (x111 (x47 x66 x12)) (x46 (x47 x66 x66)) (x27 (x47 x16 x12)) (x43 (x47 x16 x66)) (x59 (x47 x103 x103)) (x67 (x47 x103 x16)) (x11 (x47 x16 x156)) (x98 (x47 x156 x103)) (x84 (x47 x16 x16)) (x106 (x47 x156 x12)) (x131 (x47 x16 x103)) (x88 (x47 x12 x16)) (x50 (x47 x12 x12)) (x6 (x47 x12 x66)) (x159 (x47 x12 x103)) (x80 (x47 x66 x103)) (x144 (x47 x103 x66)) (x4 (x47 x156 x16)) (x20 (x47 x66 x16)) (x54 (x47 x12 x156)) (x124 (x47 x156 x156)) (x109 (x47 x103 x12)) (x110 (x47 x103 x156))) (let ((x145 (= x12 x124)) (x149 (= x66 x109)) (x122 (= x12 x59)) (x99 (= x66 x11)) (x68 (= x11 x16)) (x97 (= x20 x66)) (x56 (= x153 x103)) (x93 (= x16 x98)) (x104 (= x67 x103)) (x70 (= x54 x16)) (x23 (= x153 x12)) (x146 (= x156 x46)) (x57 (= x16 x6)) (x92 (= x144 x103)) (x130 (= x88 x156)) (x42 (= x12 x98)) (x116 (= x12 x109)) (x107 (= x12 x80)) (x28 (= x66 x50)) (x48 (= x103 x6)) (x126 (= x156 x50)) (x117 (= x156 x59)) (x75 (= x66 x106)) (x29 (= x12 x144)) (x61 (= x98 x156)) (x72 (= x109 x156)) (x113 (= x156 x111)) (x45 (= x156 x153)) (x143 (= x106 x103)) (x64 (= x124 x156)) (x115 (= x27 x16)) (x30 (= x144 x16)) (x79 (= x103 x124)) (x137 (= x106 x12)) (x18 (= x54 x12)) (x89 (= x43 x12)) (x83 (= x110 x66)) (x135 (= x16 x159)) (x25 (= x131 x16)) (x157 (= x156 x80)) (x112 (= x109 x16)) (x62 (= x6 x156)) (x118 (= x16 x84)) (x129 (= x101 x156)) (x5 (= x6 x66)) (x49 (= x43 x156)) (x9 (= x16 x46)) (x127 (= x16 x67)) (x77 (= x12 x110)) (x139 (= x101 x66)) (x95 (= x98 x66)) (x152 (= x156 x144)) (x132 (= x103 x131)) (x121 (= x59 x66)) (x14 (= x103 x159)) (x73 (= x50 x103)) (x19 (= x12 x50)) (x22 (= x4 x16)) (x150 (= x12 x27)) (x3 (= x109 x103)) (x78 (= x124 x16)) (x147 (= x80 x16)) (x44 (= x98 x103)) (x65 (= x20 x156)) (x125 (= x110 x16)) (x76 (= x11 x103)) (x38 (= x16 x50)) (x155 (= x54 x103)) (x82 (= x84 x103)) (x151 (= x153 x66)) (x108 (= x131 x66)) (x74 (= x12 x46)) (x26 (= x12 x84)) (x114 (= x27 x103)) (x91 (= x16 x20)) (x33 (= x88 x12)) (x140 (= x103 x101)) (x51 (= x111 x16)) (x100 (= x156 x11)) (x32 (= x16 x106)) (x39 (= x54 x156)) (x120 (= x12 x159)) (x36 (= x103 x4)) (x58 (= x103 x88)) (x41 (= x101 x12)) (x123 (= x159 x66)) (x86 (= x66 x84)) (x96 (= x16 x101)) (x55 (= x66 x88)) (x119 (= x111 x103)) (x128 (= x66 x144)) (x15 (= x12 x20)) (x34 (= x156 x110)) (x148 (= x103 x43)) (x90 (= x67 x156)) (x154 (= x59 x16)) (x158 (= x43 x66)) (x94 (= x131 x156)) (x85 (= x67 x12)) (x105 (= x156 x84)) (x7 (= x153 x16)) (x138 (= x131 x12)) (x17 (= x66 x4)) (x133 (= x16 x43)) (x141 (= x59 x103)) (x13 (= x66 x54)) (x63 (= x156 x159)) (x52 (= x27 x156)) (x2 (= x111 x12)) (x31 (= x66 x46)) (x69 (= x66 x111)) (x102 (= x46 x103)) (x21 (= x12 x4)) (x71 (= x103 x20)) (x53 (= x103 x80)) (x87 (= x12 x6)) (x24 (= x156 x4)) (x1 (= x110 x103)) (x37 (= x124 x66)) (x142 (= x66 x80)) (x60 (= x67 x66)) (x10 (= x16 x88)) (x8 (= x27 x66)) (x134 (= x106 x156)) (x40 (= x11 x12))) (and (and (and (and (and (and (and (or (or (or x85 (or x21 x26)) x33) x15) (or (or (or x138 (or x40 x26)) x150) x89)) (and (and (or (or x114 (or (or x76 x82) x132)) x148) (or (or x58 (or (or x82 x36) x104)) x71)) (and (and (or x49 (or x52 (or (or x105 x100) x94))) (or (or (or (or x105 x24) x90) x130) x65)) (and (or (or x10 (or x127 (or x22 x118))) x91) (or (or x115 (or (or x68 x118) x25)) x133))))) (and (or (or (or x108 (or x86 x99)) x8) x158) (or (or x55 (or (or x17 x86) x60)) x97))) (and (and (or (or x75 (or x95 (or x37 x17))) x151) (or (or (or (or x99 x37) x83) x13) x139)) (and (and (and (or (or x155 (or (or x79 x76) x1)) x140) (or (or (or (or x79 x36) x44) x143) x56)) (and (and (or (or (or x125 (or x68 x78)) x70) x96) (or (or (or x93 (or x22 x78)) x32) x7)) (and (or x45 (or x134 (or x61 (or x64 x24)))) (or x129 (or (or x34 (or x64 x100)) x39))))) (and (or x23 (or x137 (or (or x21 x145) x42))) (or x41 (or (or (or x145 x40) x77) x18)))))) (and (and (or (or (or x121 (or x95 x108)) x123) x142) (or (or x149 (or (or x83 x60) x121)) x128)) (and (and (and (and (or (or x63 (or (or x94 x61) x117)) x157) (or (or (or x117 (or x90 x34)) x72) x152)) (and (or x147 (or (or (or x25 x93) x154) x135)) (or (or (or (or x125 x127) x154) x112) x30))) (and (or x92 (or (or (or x1 x104) x141) x3)) (or (or x14 (or (or x132 x44) x141)) x53))) (and (or (or (or (or x138 x42) x122) x120) x107) (or (or (or x122 (or x85 x77)) x116) x29))))) (and (and (or (or (or x123 (or x13 x55)) x28) x5) (or x69 (or x28 (or (or x8 x75) x149)))) (and (and (and (or x48 (or x73 (or x14 (or x155 x58)))) (or (or (or x3 (or x114 x143)) x73) x119)) (and (and (or x62 (or x126 (or (or x130 x39) x63))) (or (or x126 (or x72 (or x134 x52))) x113)) (and (or x57 (or x38 (or x135 (or x10 x70)))) (or x51 (or (or x112 (or x115 x32)) x38))))) (and (or (or (or x120 (or x18 x33)) x19) x87) (or x2 (or x19 (or x116 (or x150 x137)))))))) (and (and (or x31 (or (or (or x151 x158) x128) x5)) (or x31 (or x69 (or (or x97 x139) x142)))) (and (and (or (or (or (or x15 x41) x107) x2) x74) (or x74 (or x87 (or (or x89 x23) x29)))) (and (and (or x102 (or (or (or x56 x148) x92) x48)) (or (or (or (or x140 x71) x53) x119) x102)) (and (and (or x9 (or (or (or x133 x7) x30) x57)) (or x9 (or (or x147 (or x96 x91)) x51))) (and (or (or (or (or x45 x49) x152) x62) x146) (or (or x113 (or x157 (or x65 x129))) x146))))))))))
(assert (not (and (= (x47 x66 x66) x16) (and (= (x47 x66 x12) x156) (and (= (x47 x66 x103) x103) (and (and (and (= (x47 x12 x66) x12) (and (= (x47 x12 x12) x16) (and (and (= x66 (x47 x12 x156)) (and (and (and (and (= (x47 x103 x103) x16) (and (= x103 (x47 x103 x156)) (and (and (and (and (= x66 (x47 x156 x103)) (and (and (= x12 (x47 x156 x16)) (and (and (and (and (= x156 (x47 x16 x156)) (= x16 (x47 x16 x16))) (= (x47 x16 x103) x12)) (= x66 (x47 x16 x12))) (= x103 (x47 x16 x66)))) (= x16 (x47 x156 x156)))) (= (x47 x156 x12) x103)) (= (x47 x156 x66) x156)) (= x156 (x47 x103 x16))))) (= (x47 x103 x12) x12)) (= x66 (x47 x103 x66))) (= x103 (x47 x12 x16)))) (= (x47 x12 x103) x156)))) (= x66 (x47 x66 x16))) (= (x47 x66 x156) x12)))))))
(assert (not (and (= x16 (x47 x66 x66)) (and (and (and (and (= (x47 x66 x16) x66) (and (and (and (and (and (and (and (= x66 (x47 x103 x12)) (and (and (and (and (and (= x103 (x47 x156 x12)) (and (and (= (x47 x156 x156) x16) (and (= (x47 x156 x16) x12) (and (= (x47 x16 x66) x12) (and (= (x47 x16 x12) x156) (and (= (x47 x16 x103) x103) (and (= (x47 x16 x16) x16) (= x66 (x47 x16 x156)))))))) (= (x47 x156 x103) x66))) (= x156 (x47 x156 x66))) (= x156 (x47 x103 x16))) (= x12 (x47 x103 x156))) (= (x47 x103 x103) x16))) (= x103 (x47 x103 x66))) (= x103 (x47 x12 x16))) (= (x47 x12 x156) x156)) (= (x47 x12 x103) x12)) (= x16 (x47 x12 x12))) (= (x47 x12 x66) x66))) (= x103 (x47 x66 x156))) (= x156 (x47 x66 x103))) (= x12 (x47 x66 x12))))))
(assert (and (not (= x12 x66)) (and (not (= x103 x66)) (and (and (not (= x66 x156)) (and (not (= x12 x156)) (and (and (and (and (not (= x16 x103)) (not (= x16 x156))) (not (= x16 x12))) (not (= x66 x16))) (not (= x156 x103))))) (not (= x103 x12))))))
(assert (let ((x125 (x47 x156 x156)) (x34 (x47 x12 x156)) (x1 (x47 x12 x103)) (x36 (x47 x16 x156)) (x54 (x47 x16 x16)) (x95 (x47 x66 x12)) (x21 (x47 x103 x16)) (x90 (x47 x156 x12)) (x104 (x47 x103 x12)) (x99 (x47 x66 x16)) (x132 (x47 x103 x66)) (x59 (x47 x156 x66)) (x44 (x47 x66 x103)) (x159 (x47 x103 x103)) (x130 (x47 x66 x66)) (x108 (x47 x12 x66)) (x79 (x47 x16 x103)) (x93 (x47 x156 x103)) (x60 (x47 x12 x12)) (x154 (x47 x103 x156)) (x40 (x47 x16 x12)) (x76 (x47 x156 x16)) (x109 (x47 x66 x156)) (x17 (x47 x16 x66)) (x145 (x47 x12 x16))) (let ((x27 (not (= x16 x21))) (x26 (not (= x16 x90))) (x97 (not (= x99 x66))) (x117 (not (= x156 x93))) (x37 (not (= x76 x156))) (x116 (not (= x103 x44))) (x84 (not (= x76 x16))) (x100 (not (= x16 x95))) (x86 (not (= x1 x16))) (x30 (not (= x40 x12))) (x25 (not (= x125 x156))) (x123 (not (= x103 x130))) (x152 (not (= x44 x12))) (x10 (not (= x156 x17))) (x106 (not (= x44 x16))) (x122 (not (= x104 x156))) (x141 (not (= x156 x145))) (x153 (not (= x132 x16))) (x111 (not (= x93 x103))) (x101 (not (= x156 x54))) (x120 (not (= x103 x17))) (x3 (not (= x103 x1))) (x96 (not (= x79 x12))) (x28 (not (= x125 x12))) (x128 (not (= x95 x66))) (x82 (not (= x34 x16))) (x83 (not (= x156 x60))) (x134 (not (= x21 x103))) (x58 (not (= x159 x103))) (x65 (not (= x1 x12))) (x53 (not (= x54 x66))) (x4 (not (= x93 x16))) (x118 (not (= x54 x16))) (x78 (not (= x16 x99))) (x114 (not (= x34 x103))) (x137 (not (= x103 x59))) (x19 (not (= x103 x132))) (x42 (not (= x156 x1))) (x63 (not (= x54 x103))) (x56 (not (= x125 x66))) (x50 (not (= x76 x103))) (x8 (not (= x54 x12))) (x20 (not (= x16 x40))) (x14 (not (= x40 x103))) (x49 (not (= x12 x109))) (x107 (not (= x145 x66))) (x67 (not (= x159 x16))) (x45 (not (= x12 x59))) (x70 (not (= x109 x156))) (x39 (not (= x130 x156))) (x6 (not (= x103 x36))) (x71 (not (= x108 x12))) (x139 (not (= x17 x66))) (x51 (not (= x93 x12))) (x110 (not (= x16 x130))) (x13 (not (= x108 x103))) (x48 (not (= x79 x66))) (x33 (not (= x103 x60))) (x77 (not (= x34 x156))) (x126 (not (= x103 x154))) (x121 (not (= x156 x99))) (x138 (not (= x156 x90))) (x147 (not (= x12 x154))) (x119 (not (= x66 x76))) (x18 (not (= x103 x99))) (x61 (not (= x154 x156))) (x124 (not (= x16 x109))) (x2 (not (= x40 x66))) (x68 (not (= x16 x60))) (x52 (not (= x103 x125))) (x69 (not (= x66 x59))) (x133 (not (= x12 x159))) (x15 (not (= x66 x93))) (x102 (not (= x154 x66))) (x89 (not (= x34 x66))) (x31 (not (= x66 x130))) (x148 (not (= x66 x36))) (x140 (not (= x12 x130))) (x43 (not (= x79 x16))) (x146 (not (= x12 x95))) (x7 (not (= x145 x12))) (x129 (not (= x12 x104))) (x142 (not (= x109 x66))) (x55 (not (= x95 x103))) (x92 (not (= x66 x21))) (x113 (not (= x99 x12))) (x32 (not (= x156 x132))) (x9 (not (= x90 x12))) (x151 (not (= x132 x66))) (x80 (not (= x156 x159))) (x149 (not (= x12 x36))) (x135 (not (= x156 x59))) (x24 (not (= x16 x17))) (x72 (not (= x79 x103))) (x150 (not (= x103 x109))) (x94 (not (= x79 x156))) (x85 (not (= x40 x156))) (x157 (not (= x60 x12))) (x158 (not (= x66 x44))) (x22 (not (= x104 x16))) (x112 (not (= x95 x156))) (x73 (not (= x103 x104))) (x144 (not (= x21 x156))) (x155 (not (= x103 x145))) (x29 (not (= x1 x66))) (x46 (not (= x17 x12))) (x88 (not (= x16 x145))) (x64 (not (= x16 x108))) (x57 (not (= x12 x34))) (x41 (not (= x66 x159))) (x115 (not (= x156 x44))) (x23 (not (= x90 x66))) (x98 (not (= x16 x59))) (x127 (not (= x156 x36))) (x143 (not (= x90 x103))) (x11 (not (= x16 x36))) (x62 (not (= x132 x12))) (x38 (not (= x156 x108))) (x105 (not (= x16 x154))) (x131 (not (= x16 x125))) (x74 (not (= x66 x60))) (x5 (not (= x108 x66))) (x91 (not (= x12 x21))) (x87 (not (= x104 x66))) (x75 (not (= x12 x76)))) (or (and (and (and (or x128 x5) (and (or x158 x151) (and (or x97 x139) (or x69 x142)))) (or x31 x31)) (and (and (and (and (or x87 x29) (and (and (or x92 x48) (or x102 x15)) (or x41 x41))) (or x158 x151)) (and (and (or x97 x139) (and (and (and (or x53 x53) (or x148 x119)) (or x92 x48)) (or x107 x2))) (and (or x69 x142) (and (or x23 x89) (and (and (or x119 x148) (or x56 x56)) (or x15 x102)))))) (and (or x128 x5) (and (or x74 x74) (and (and (or x23 x89) (or x2 x107)) (or x29 x87)))))) (or (or (or (and (and (and (or x64 x100) (and (and (or x86 x22) (and (or x82 x26) (or x20 x88))) (or x68 x68))) (and (and (and (or x24 x78) (and (and (and (or x118 x118) (or x84 x11)) (or x27 x43)) (or x88 x20))) (and (and (and (or x105 x4) (and (or x131 x131) (or x11 x84))) (or x26 x82)) (or x124 x98))) (and (and (or x86 x22) (and (and (or x105 x4) (or x27 x43)) (or x67 x67))) (or x153 x106)))) (and (or x110 x110) (and (and (or x153 x106) (and (or x78 x24) (or x124 x98))) (or x64 x100)))) (and (and (and (and (and (and (or x141 x85) (and (and (or x101 x101) (or x37 x127)) (or x94 x144))) (or x10 x121)) (and (and (and (and (or x25 x25) (or x127 x37)) (or x61 x117)) (or x138 x77)) (or x70 x135))) (and (or x115 x32) (and (and (or x80 x80) (and (or x144 x94) (or x61 x117))) (or x42 x122)))) (and (or x38 x112) (and (and (or x42 x122) (and (or x138 x77) (or x141 x85))) (or x83 x83)))) (and (or x39 x39) (and (and (or x115 x32) (and (or x70 x135) (or x121 x10))) (or x38 x112))))) (and (and (and (or x55 x13) (and (or x19 x116) (and (or x120 x18) (or x150 x137)))) (or x123 x123)) (and (and (and (or x19 x116) (and (and (and (or x111 x126) (or x134 x72)) (or x58 x58)) (or x73 x3))) (and (and (or x18 x120) (and (and (or x72 x134) (and (or x50 x6) (or x63 x63))) (or x14 x155))) (and (or x137 x150) (and (or x143 x114) (and (and (or x52 x52) (or x50 x6)) (or x111 x126)))))) (and (or x55 x13) (and (and (and (or x14 x155) (or x143 x114)) (or x3 x73)) (or x33 x33)))))) (and (and (and (or x146 x71) (and (or x157 x157) (and (or x129 x65) (and (or x9 x57) (or x30 x7))))) (and (and (and (and (or x57 x9) (and (and (or x75 x149) (or x28 x28)) (or x51 x147))) (or x45 x49)) (and (and (or x7 x30) (and (and (or x149 x75) (or x8 x8)) (or x91 x96))) (or x113 x46))) (and (or x152 x62) (and (or x65 x129) (and (or x133 x133) (and (or x96 x91) (or x147 x51))))))) (and (and (and (or x62 x152) (and (or x45 x49) (or x46 x113))) (or x71 x146)) (or x140 x140))))))))
(assert (let ((x131 (x47 x12 x12)) (x27 (x47 x66 x66)) (x11 (x47 x103 x103)) (x84 (x47 x156 x156)) (x118 (x47 x16 x16))) (or (and (not (= x66 x27)) (and (not (= x131 x66)) (and (and (not (= x118 x66)) (not (= x66 x84))) (not (= x66 x11))))) (or (or (and (not (= x103 x27)) (and (and (and (not (= x103 x118)) (not (= x84 x103))) (not (= x103 x11))) (not (= x103 x131)))) (or (and (not (= x27 x156)) (and (and (not (= x11 x156)) (and (not (= x84 x156)) (not (= x156 x118)))) (not (= x131 x156)))) (and (and (and (not (= x16 x11)) (and (not (= x16 x118)) (not (= x84 x16)))) (not (= x131 x16))) (not (= x16 x27))))) (and (not (= x12 x27)) (and (not (= x131 x12)) (and (not (= x12 x11)) (and (not (= x118 x12)) (not (= x12 x84))))))))))
(assert (let ((x11 (x47 x156 x156)) (x84 (x47 x16 x16)) (x43 (x47 x66 x66)) (x131 (x47 x103 x103)) (x27 (x47 x12 x12))) (let ((x4 (not (= x103 x131))) (x67 (not (= x27 x12))) (x105 (not (= x156 x11))) (x118 (not (= x84 x16))) (x88 (not (= x43 x66)))) (or (or (and (and (not (= (x47 x12 x66) x66)) (and x67 (and (and (not (= x16 (x47 x12 x16))) (not (= x156 (x47 x12 x156)))) (not (= (x47 x12 x103) x103))))) (and (and x67 (and (not (= x131 x12)) (and (not (= x84 x12)) (not (= x11 x12))))) (not (= x43 x12)))) (or (or (and (and (and (and (not (= x103 (x47 x156 x103))) (and x105 (not (= (x47 x156 x16) x16)))) (not (= x12 (x47 x156 x12)))) (not (= x66 (x47 x156 x66)))) (and (and (not (= x27 x156)) (and (and x105 (not (= x84 x156))) (not (= x131 x156)))) (not (= x156 x43)))) (and (and (not (= x16 x43)) (and (and (and x118 (not (= x11 x16))) (not (= x131 x16))) (not (= x16 x27)))) (and (not (= x66 (x47 x16 x66))) (and (not (= (x47 x16 x12) x12)) (and (and (not (= (x47 x16 x156) x156)) x118) (not (= (x47 x16 x103) x103))))))) (and (and (not (= x103 x43)) (and (not (= x27 x103)) (and x4 (and (not (= x103 x84)) (not (= x103 x11)))))) (and (and (not (= (x47 x103 x12) x12)) (and x4 (and (not (= x156 (x47 x103 x156))) (not (= x16 (x47 x103 x16)))))) (not (= x66 (x47 x103 x66))))))) (and (and (and (and (and (not (= (x47 x66 x16) x16)) (not (= (x47 x66 x156) x156))) (not (= x103 (x47 x66 x103)))) (not (= (x47 x66 x12) x12))) x88) (and x88 (and (not (= x27 x66)) (and (not (= x131 x66)) (and (not (= x66 x11)) (not (= x66 x84)))))))))))
(check-sat)
(exit)
